************************************************************************
file with basedata            : n/a
initial value random generator: n/a
************************************************************************
projects                      :  1
jobs (incl. supersource/sink ):  32
horizon                       :  182
RESOURCES
  - renewable                 :  4   R
  - nonrenewable              :  0   N
  - doubly constrained        :  0   D
************************************************************************
PROJECT INFORMATION:
pronr.  #jobs rel.date duedate tardcost  MPM-Time
    1     30      0       60       21       60
************************************************************************
PRECEDENCE RELATIONS:
jobnr.    #modes  #successors   successors
   1        1          3           2   3   4
   2        1          3           5   7   9
   3        1          2           6  13
   4        1          3          12  13  21
   5        1          3           8  15  17
   6        1          3          12  16  21
   7        1          3          11  14  27
   8        1          3          10  14  27
   9        1          3          11  12  15
  10        1          3          16  20  31
  11        1          3          13  17  30
  12        1          3          18  20  26
  13        1          2          16  20
  14        1          2          21  25
  15        1          3          22  23  31
  16        1          2          19  22
  17        1          3          19  24  26
  18        1          3          19  23  24
  19        1          2          25  28
  20        1          1          22
  21        1          2          26  30
  22        1          2          24  28
  23        1          2          27  28
  24        1          1          25
  25        1          1          29
  26        1          2          29  31
  27        1          1          30
  28        1          1          29
  29        1          1          32
  30        1          1          32
  31        1          1          32
  32        1          0        
************************************************************************
REQUESTS/DURATIONS:
jobnr. mode duration  R 1  R 2  R 3  R 4
------------------------------------------------------------------------
  1      1     0    
  2      1     3       9   9   9
                       2   2   2
                       4   4   4
                       2   2   2
  3      1     9       7   7   7   7   7   7   7   7   7
                       2   2   2   2   2   2   2   2   2
                       6   6   6   6   6   6   6   6   6
                       8   8   8   8   8   8   8   8   8
  4      1     3       7   7   7
                       1   1   1
                       6   6   6
                       9   9   9
  5      1     1      10
                       2
                       2
                       4
  6      1     9       7   4   7   7   7   7   7   7   7
                       1   1   1   1   1   1   1   1   1
                       7   4   7   7   7   7   7   7   7
                       6   3   6   6   6   6   6   6   6
  7      1     2       2   2
                       8   8
                       2   2
                      10  10
  8      1     7       2   2   2   2   2   2   2
                       5   5   5   5   5   5   5
                       1   1   1   1   1   1   1
                       5   5   5   5   5   5   5
  9      1    10       6   6   6   6   6   6   6   6   6   6
                       8   8   8   8   8   8   8   8   8   8
                       2   2   2   2   2   2   2   2   2   2
                       6   6   6   6   6   6   6   6   6   6
 10      1    10       7   7   4   7   7   7   7   7   7   7
                       7   7   4   7   7   7   7   7   7   7
                       4   4   2   4   4   4   4   4   4   4
                       7   7   4   7   7   7   7   7   7   7
 11      1     4       1   1   1   1
                      10  10  10  10
                       4   4   4   4
                       2   2   2   2
 12      1     5       2   3   3   3   3
                       3   6   6   6   6
                       2   3   3   3   3
                       1   1   1   1   1
 13      1     9       6   6   6   6   6   6   6   6   6
                       5   5   5   5   5   5   5   5   5
                       3   3   3   3   3   3   3   3   3
                       5   5   5   5   5   5   5   5   5
 14      1     2       4   4
                       4   4
                       6   6
                      10  10
 15      1    10       3   3   3   3   3   3   3   3   3   3
                       7   7   7   7   7   7   7   7   7   7
                       6   6   6   6   6   6   6   6   6   6
                       7   7   7   7   7   7   7   7   7   7
 16      1     6       6   6   6   6   6   3
                       2   2   2   2   2   1
                       1   1   1   1   1   1
                       8   8   8   8   8   4
 17      1     8       3   3   3   3   3   3   3   3
                       6   6   6   6   6   6   6   6
                       8   8   8   8   8   8   8   8
                       2   2   2   2   2   2   2   2
 18      1     8       6   6   6   6   6   6   6   3
                       4   4   4   4   4   4   4   2
                       2   2   2   2   2   2   2   1
                       4   4   4   4   4   4   4   2
 19      1     8       4   4   4   4   4   4   4   4
                       1   1   1   1   1   1   1   1
                       6   6   6   6   6   6   6   6
                       7   7   7   7   7   7   7   7
 20      1     4       1   2   2   2
                       5  10  10  10
                       3   6   6   6
                       3   6   6   6
 21      1     3       5   5   5
                       9   9   9
                       8   8   8
                       2   2   2
 22      1     5       6   6   6   6   6
                       2   2   2   2   2
                       5   5   5   5   5
                       6   6   6   6   6
 23      1     6       7   7   7   7   7   7
                       9   9   9   9   9   9
                       4   4   4   4   4   4
                       3   3   3   3   3   3
 24      1    10       4   4   4   2   4   4   4   4   4   4
                       4   4   4   2   4   4   4   4   4   4
                       4   4   4   2   4   4   4   4   4   4
                       5   5   5   3   5   5   5   5   5   5
 25      1     8       9   9   9   9   9   5   9   9
                       5   5   5   5   5   3   5   5
                       2   2   2   2   2   1   2   2
                      10  10  10  10  10   5  10  10
 26      1     1       2
                       5
                      10
                       3
 27      1     8       3   3   3   3   3   3   3   3
                       5   5   5   5   5   5   5   5
                      10  10  10  10  10  10  10  10
                       9   9   9   9   9   9   9   9
 28      1     6       8   8   8   8   8   8
                      10  10  10  10  10  10
                       1   1   1   1   1   1
                       5   5   5   5   5   5
 29      1     5       5  10  10  10  10
                       5  10  10  10  10
                       3   5   5   5   5
                       2   3   3   3   3
 30      1     7       6   6   6   6   6   6   6
                       7   7   7   7   7   7   7
                       4   4   4   4   4   4   4
                       6   6   6   6   6   6   6
 31      1     5       1   1   1   1   1
                       5   5   5   5   5
                       4   4   4   4   4
                       5   5   5   5   5
 32      1     0    
************************************************************************
RESOURCEAVAILABILITIES:
  R 1  R 2  R 3  R 4

  19  19  19  19  19  19  19  19  19  19  19  19  19  19  19  19  19  19  19  19  19  19  19  19  19  19  19  19  10  10  19  19  19  19  19  19  19  19  19  19  19  19  19  10  19  19  19  19  10  19  19  19  19  19  19  10  19  19  19  19  19  19  19  19  19  19  19  19  19  19  19  19  19  19  19  19  19  19  19  19  19  19  19  19  19  19  19  19  19  19  19  19  10  19  19  19  19  19  19  19  19  19  10  19  19  19  19  19  10  19  19  19  19  19  19  19  19  19  19  19  19  19  19  19  19  19  19  19  19  19  19  19  19  19  19  19  10  19  19  19  19  19  19  19  19  19  19  19  19  19  10  19  19  19  10  19  19  19  19  19  19  19  19  19  19  19  19  19  19  19  10  19  19  19  19  19  19  19  19  19  19  19

  25  25  25  25  25  25  25  25  25  25  25  25  25  25  25  25  25  25  25  25  25  25  25  25  25  25  25  25  13  13  25  25  25  25  25  25  25  25  25  25  25  25  25  13  25  25  25  25  13  25  25  25  25  25  25  13  25  25  25  25  25  25  25  25  25  25  25  25  25  25  25  25  25  25  25  25  25  25  25  25  25  25  25  25  25  25  25  25  25  25  25  25  13  25  25  25  25  25  25  25  25  25  13  25  25  25  25  25  13  25  25  25  25  25  25  25  25  25  25  25  25  25  25  25  25  25  25  25  25  25  25  25  25  25  25  25  13  25  25  25  25  25  25  25  25  25  25  25  25  25  13  25  25  25  13  25  25  25  25  25  25  25  25  25  25  25  25  25  25  25  13  25  25  25  25  25  25  25  25  25  25  25

  21  21  21  21  21  21  21  21  21  21  21  21  21  21  21  21  21  21  21  21  21  21  21  21  21  21  21  21  11  11  21  21  21  21  21  21  21  21  21  21  21  21  21  11  21  21  21  21  11  21  21  21  21  21  21  11  21  21  21  21  21  21  21  21  21  21  21  21  21  21  21  21  21  21  21  21  21  21  21  21  21  21  21  21  21  21  21  21  21  21  21  21  11  21  21  21  21  21  21  21  21  21  11  21  21  21  21  21  11  21  21  21  21  21  21  21  21  21  21  21  21  21  21  21  21  21  21  21  21  21  21  21  21  21  21  21  11  21  21  21  21  21  21  21  21  21  21  21  21  21  11  21  21  21  11  21  21  21  21  21  21  21  21  21  21  21  21  21  21  21  11  21  21  21  21  21  21  21  21  21  21  21

  20  20  20  20  20  20  20  20  20  20  20  20  20  20  20  20  20  20  20  20  20  20  20  20  20  20  20  20  10  10  20  20  20  20  20  20  20  20  20  20  20  20  20  10  20  20  20  20  10  20  20  20  20  20  20  10  20  20  20  20  20  20  20  20  20  20  20  20  20  20  20  20  20  20  20  20  20  20  20  20  20  20  20  20  20  20  20  20  20  20  20  20  10  20  20  20  20  20  20  20  20  20  10  20  20  20  20  20  10  20  20  20  20  20  20  20  20  20  20  20  20  20  20  20  20  20  20  20  20  20  20  20  20  20  20  20  10  20  20  20  20  20  20  20  20  20  20  20  20  20  10  20  20  20  10  20  20  20  20  20  20  20  20  20  20  20  20  20  20  20  10  20  20  20  20  20  20  20  20  20  20  20

************************************************************************
